Grasp exp. instance_n_20_m_10_id_2.lp tipoLifted 0 szPool 5 nIteration 20 alpha 0.2 
Academic license - for non-commercial use only
Read LP format model from file ../input/instancesGenerated/instance_n_20_m_10_id_2.lp
Reading time = 0.00 seconds
: 10 rows, 20 columns, 104 nonzeros
Optimize a model with 10 rows, 20 columns and 104 nonzeros
Variable types: 0 continuous, 20 integer (20 binary)
Coefficient statistics:
  Matrix range     [1e+00, 1e+01]
  Objective range  [1e+00, 1e+01]
  Bounds range     [1e+00, 1e+00]
  RHS range        [2e+01, 3e+01]
Found heuristic solution: objective 42.0000000

Explored 0 nodes (0 simplex iterations) in 0.00 seconds
Thread count was 1 (of 8 available processors)

Solution count 1: 42 
No other solutions better than 0

Solution limit reached
Best objective 4.200000000000e+01, best bound -, gap -
C_1:	 9.00 x_1  = 1.000000 + 8.00 x_2  = 0.000000 + 5.00 x_3  = 0.461994 + 5.00 x_7  = 0.000000 + 8.00 x_9  = 0.000000 + 2.00 x_10  = 0.891217 + 9.00 x_13  = 0.776061 + 3.00 x_15  = 0.245656 + 2.00 x_16  = 1.000000 + 7.00 x_18  = 0.499133 + 8.00 x_19  = 0.836518 <= 33.00
C_2:	 6.00 x_1  = 1.000000 + 8.00 x_2  = 0.000000 + 1.00 x_4  = 1.000000 + 10.00 x_5  = 0.199131 + 8.00 x_6  = 0.000000 + 5.00 x_8  = 1.000000 + 2.00 x_12  = 0.000000 + 2.00 x_13  = 0.776061 + 10.00 x_15  = 0.245656 + 10.00 x_16  = 1.000000 + 4.00 x_17  = 1.000000 + 2.00 x_20  = 1.000000 <= 34.00
C_3:	 3.00 x_1  = 1.000000 + 4.00 x_2  = 0.000000 + 3.00 x_3  = 0.461994 + 3.00 x_4  = 1.000000 + 4.00 x_5  = 0.199131 + 8.00 x_7  = 0.000000 + 10.00 x_8  = 1.000000 + 9.00 x_9  = 0.000000 + 1.00 x_10  = 0.891217 + 1.00 x_12  = 0.000000 + 1.00 x_14  = 1.000000 + 1.00 x_18  = 0.499133 + 5.00 x_20  = 1.000000 <= 26.00
C_4:	 6.00 x_4  = 1.000000 + 9.00 x_6  = 0.000000 + 6.00 x_7  = 0.000000 + 5.00 x_9  = 0.000000 + 1.00 x_10  = 0.891217 + 10.00 x_12  = 0.000000 + 8.00 x_15  = 0.245656 + 8.00 x_19  = 0.836518 <= 26.00
C_5:	 6.00 x_6  = 0.000000 + 10.00 x_7  = 0.000000 + 7.00 x_11  = 1.000000 + 6.00 x_14  = 1.000000 + 4.00 x_15  = 0.245656 + 2.00 x_18  = 0.499133 + 6.00 x_19  = 0.836518 <= 20.00
C_6:	 7.00 x_3  = 0.461994 + 1.00 x_5  = 0.199131 + 8.00 x_6  = 0.000000 + 2.00 x_7  = 0.000000 + 3.00 x_9  = 0.000000 + 6.00 x_10  = 0.891217 + 4.00 x_14  = 1.000000 + 5.00 x_15  = 0.245656 + 8.00 x_16  = 1.000000 + 10.00 x_18  = 0.499133 <= 27.00
C_7:	 6.00 x_1  = 1.000000 + 4.00 x_3  = 0.461994 + 9.00 x_4  = 1.000000 + 6.00 x_6  = 0.000000 + 10.00 x_7  = 0.000000 + 4.00 x_9  = 0.000000 + 5.00 x_12  = 0.000000 + 7.00 x_13  = 0.776061 + 6.00 x_14  = 1.000000 + 7.00 x_15  = 0.245656 + 2.00 x_16  = 1.000000 + 2.00 x_20  = 1.000000 <= 34.00
C_8:	 4.00 x_1  = 1.000000 + 8.00 x_2  = 0.000000 + 2.00 x_4  = 1.000000 + 8.00 x_6  = 0.000000 + 8.00 x_7  = 0.000000 + 9.00 x_9  = 0.000000 + 1.00 x_10  = 0.891217 + 2.00 x_15  = 0.245656 + 6.00 x_17  = 1.000000 + 5.00 x_18  = 0.499133 + 10.00 x_19  = 0.836518 <= 31.00
C_9:	 3.00 x_1  = 1.000000 + 3.00 x_4  = 1.000000 + 10.00 x_5  = 0.199131 + 4.00 x_6  = 0.000000 + 6.00 x_7  = 0.000000 + 1.00 x_8  = 1.000000 + 1.00 x_11  = 1.000000 + 10.00 x_12  = 0.000000 + 2.00 x_14  = 1.000000 + 7.00 x_16  = 1.000000 + 1.00 x_18  = 0.499133 + 3.00 x_19  = 0.836518 + 6.00 x_20  = 1.000000 <= 28.00
C_10:	 3.00 x_5  = 0.199131 + 7.00 x_8  = 1.000000 + 7.00 x_9  = 0.000000 + 4.00 x_10  = 0.891217 + 6.00 x_12  = 0.000000 + 3.00 x_13  = 0.776061 + 3.00 x_19  = 0.836518 <= 16.00
Solution initial: 73.848370 
Number Constraints Used in Cover:10
GRASP Method!
Number cuts repeat: 0
value: 73.848370
Number Constraints Used in Cover:17
GRASP Method!
Number cuts repeat: 0
value: 73.848370
Number Constraints Used in Cover:22
GRASP Method!
Number cuts repeat: 0
value: 73.848370
Number Constraints Used in Cover:28
GRASP Method!
Number cuts repeat: 0
value: 73.848370
Number Constraints Used in Cover:36
GRASP Method!
Number cuts repeat: 0
value: 73.848370
Number Constraints Used in Cover:39
GRASP Method!
Number cuts repeat: 0
value: 73.848370
Number Constraints Used in Cover:40
GRASP Method!
Number cuts repeat: 0
value: 73.848370
Number Constraints Used in Cover:48
GRASP Method!
Number cuts repeat: 0
value: 73.848370
Number Constraints Used in Cover:54
GRASP Method!
Number cuts repeat: 0
value: 73.848370
Number Constraints Used in Cover:54
GRASP Method!
Number cuts repeat: 0
value: 73.848370
Number Constraints Used in Cover:57
GRASP Method!
Number cuts repeat: 0
value: 73.848370
Number Constraints Used in Cover:61
GRASP Method!
Number cuts repeat: 0
value: 73.848370
Number Constraints Used in Cover:65
GRASP Method!
Number cuts repeat: 0
value: 73.848370
Number Constraints Used in Cover:68
GRASP Method!
Number cuts repeat: 0
value: 73.848370
Number Constraints Used in Cover:70
GRASP Method!
Number cuts repeat: 0
value: 73.848370
Number Constraints Used in Cover:74
GRASP Method!
Number cuts repeat: 0
value: 73.848370
Number Constraints Used in Cover:79
GRASP Method!
Number cuts repeat: 0
value: 73.848370
Number Constraints Used in Cover:79
GRASP Method!
Number cuts repeat: 0
value: 73.848370
Number Constraints Used in Cover:81
GRASP Method!
Number cuts repeat: 0
value: 73.848370
Number Constraints Used in Cover:83
GRASP Method!
Number cuts repeat: 0
value: 73.848370
Number Constraints Used in Cover:84
GRASP Method!
Number cuts repeat: 0
value: 73.848370
Number Constraints Used in Cover:87
GRASP Method!
Number cuts repeat: 0
value: 73.848370
Number Constraints Used in Cover:91
GRASP Method!
Number cuts repeat: 0
value: 73.848370
Number Constraints Used in Cover:94
GRASP Method!
Number cuts repeat: 0
value: 73.848370
Number Constraints Used in Cover:94
GRASP Method!
Number cuts repeat: 0
value: 73.848370
Number Constraints Used in Cover:97
GRASP Method!
Number cuts repeat: 0
value: 73.848370
Number Constraints Used in Cover:100
GRASP Method!
Number cuts repeat: 0
value: 73.848370
Number Constraints Used in Cover:100
GRASP Method!
Number cuts repeat: 0
value: 73.848370
Number Constraints Used in Cover:101
GRASP Method!
Number cuts repeat: 0
value: 73.848370
Number Constraints Used in Cover:105
GRASP Method!
Number cuts repeat: 0
value: 73.848370
Number Constraints Used in Cover:105
GRASP Method!
Number cuts repeat: 0
value: 73.848370
Number Constraints Used in Cover:106
GRASP Method!
Number cuts repeat: 0
value: 73.848370
Number Constraints Used in Cover:106
GRASP Method!
Number cuts repeat: 0
value: 73.848370
Number Constraints Used in Cover:106
GRASP Method!
Number cuts repeat: 0
value: 73.848370
Number Constraints Used in Cover:111
GRASP Method!
Number cuts repeat: 0
value: 73.848370
Number Constraints Used in Cover:113
GRASP Method!
Number cuts repeat: 0
value: 73.848370
Number Constraints Used in Cover:115
GRASP Method!
Number cuts repeat: 0
value: 73.848370
Number Constraints Used in Cover:115
GRASP Method!
Number cuts repeat: 0
value: 73.848370
Number Constraints Used in Cover:115
GRASP Method!
Number cuts repeat: 0
value: 73.848370
Number Constraints Used in Cover:116
GRASP Method!
Number cuts repeat: 0
value: 73.848370
Number Constraints Used in Cover:116
GRASP Method!
Number cuts repeat: 0
value: 73.848370
Number Constraints Used in Cover:116
GRASP Method!
Number cuts repeat: 0
value: 73.848370
Number Constraints Used in Cover:120
GRASP Method!
Number cuts repeat: 0
value: 73.848370
Number Constraints Used in Cover:122
GRASP Method!
Number cuts repeat: 0
value: 73.848370
Number Constraints Used in Cover:126
GRASP Method!
Number cuts repeat: 0
value: 73.848370
Number Constraints Used in Cover:131
GRASP Method!
Number cuts repeat: 0
value: 73.848370
Number Constraints Used in Cover:137
GRASP Method!
Number cuts repeat: 0
value: 73.848370
Number Constraints Used in Cover:139
GRASP Method!
Number cuts repeat: 0
value: 73.848370
Number Constraints Used in Cover:140
GRASP Method!
Number cuts repeat: 0
value: 73.848370
Number Constraints Used in Cover:143
GRASP Method!
Number cuts repeat: 0
value: 73.848370
Number Constraints Used in Cover:146
GRASP Method!
Number cuts repeat: 0
value: 73.848370
Number Constraints Used in Cover:151
GRASP Method!
Number cuts repeat: 0
value: 73.848370
Number Constraints Used in Cover:157
GRASP Method!
Number cuts repeat: 0
value: 73.848370
Number Constraints Used in Cover:160
GRASP Method!
Number cuts repeat: 0
value: 73.848370
Number Constraints Used in Cover:160
GRASP Method!
Number cuts repeat: 0
value: 73.848370
Number Constraints Used in Cover:163
GRASP Method!
Number cuts repeat: 0
value: 73.848370
Number Constraints Used in Cover:167
GRASP Method!
Number cuts repeat: 0
value: 73.848370
Number Constraints Used in Cover:175
GRASP Method!
Number cuts repeat: 0
value: 73.848370
Number Constraints Used in Cover:182
GRASP Method!
Number cuts repeat: 0
value: 73.848370
Number Constraints Used in Cover:187
GRASP Method!
Number cuts repeat: 0
value: 73.848370
Number Constraints Used in Cover:190
GRASP Method!
Number cuts repeat: 0
value: 73.848370
Number Constraints Used in Cover:191
GRASP Method!
Number cuts repeat: 0
value: 73.848370
Number Constraints Used in Cover:194
GRASP Method!
Number cuts repeat: 0
value: 73.848370
Number Constraints Used in Cover:195
GRASP Method!
Number cuts repeat: 0
value: 73.848055
Number Constraints Used in Cover:203
GRASP Method!
Number cuts repeat: 0
value: 73.848055
Number Constraints Used in Cover:215
GRASP Method!
Number cuts repeat: 0
value: 73.848055
Number Constraints Used in Cover:223
GRASP Method!
Number cuts repeat: 0
value: 73.848055
Number Constraints Used in Cover:228
GRASP Method!
Number cuts repeat: 0
value: 73.848055
Number Constraints Used in Cover:238
GRASP Method!
Number cuts repeat: 0
value: 73.848055
Number Constraints Used in Cover:244
GRASP Method!
Number cuts repeat: 0
value: 73.848055
Number Constraints Used in Cover:249
GRASP Method!
Number cuts repeat: 0
value: 73.848055
Number Constraints Used in Cover:259
GRASP Method!
Number cuts repeat: 0
value: 73.848055
Number Constraints Used in Cover:263
GRASP Method!
Number cuts repeat: 0
value: 73.848055
Number Constraints Used in Cover:269
GRASP Method!
Number cuts repeat: 0
value: 73.848055
Number Constraints Used in Cover:271
GRASP Method!
Number cuts repeat: 0
value: 73.848055
Number Constraints Used in Cover:273
GRASP Method!
Number cuts repeat: 0
value: 73.848055
Number Constraints Used in Cover:278
GRASP Method!
Number cuts repeat: 0
value: 73.848055
Number Constraints Used in Cover:283
GRASP Method!
Number cuts repeat: 0
value: 73.848055
Number Constraints Used in Cover:288
GRASP Method!
Number cuts repeat: 0
value: 73.848055
Number Constraints Used in Cover:291
GRASP Method!
Number cuts repeat: 0
value: 73.848055
Number Constraints Used in Cover:295
GRASP Method!
Number cuts repeat: 0
value: 73.848055
Number Constraints Used in Cover:302
GRASP Method!
Number cuts repeat: 0
value: 73.848055
Number Constraints Used in Cover:309
GRASP Method!
Number cuts repeat: 0
value: 73.848055
Number Constraints Used in Cover:321
GRASP Method!
Number cuts repeat: 0
value: 73.848055
Number Constraints Used in Cover:328
GRASP Method!
Number cuts repeat: 0
value: 73.848055
Number Constraints Used in Cover:330
GRASP Method!
Number cuts repeat: 0
value: 73.848055
Number Constraints Used in Cover:332
GRASP Method!
Number cuts repeat: 0
value: 73.848055
Number Constraints Used in Cover:337
GRASP Method!
Number cuts repeat: 0
value: 73.848055
Number Constraints Used in Cover:337
GRASP Method!
Number cuts repeat: 0
value: 73.848055
Number Constraints Used in Cover:337
GRASP Method!
Number cuts repeat: 0
value: 73.848055
Number Constraints Used in Cover:338
GRASP Method!
Number cuts repeat: 0
value: 73.848055
Number Constraints Used in Cover:339
GRASP Method!
Number cuts repeat: 0
value: 73.848055
Number Constraints Used in Cover:341
GRASP Method!
Number cuts repeat: 0
value: 73.848055
Number Constraints Used in Cover:341
GRASP Method!
Number cuts repeat: 0
value: 73.848055
Number Constraints Used in Cover:341
GRASP Method!
Number cuts repeat: 0
value: 73.848055
Number Constraints Used in Cover:341
GRASP Method!
Number cuts repeat: 0
value: 73.848055
Number Constraints Used in Cover:343
GRASP Method!
Number cuts repeat: 0
value: 73.848055
Number Constraints Used in Cover:343
GRASP Method!
Number cuts repeat: 0
value: 73.848055
Number Constraints Used in Cover:343
GRASP Method!
Number cuts repeat: 0
value: 73.848055
Number Constraints Used in Cover:345
GRASP Method!
Number cuts repeat: 0
value: 73.848055
Number Constraints Used in Cover:350
GRASP Method!
Number cuts repeat: 0
value: 73.848055
Number Constraints Used in Cover:353
GRASP Method!
Number cuts repeat: 0
value: 73.848055
Number Constraints Used in Cover:356
GRASP Method!
Number cuts repeat: 0
value: 73.848055
Number Constraints Used in Cover:358
GRASP Method!
Number cuts repeat: 0
value: 73.848055
Number Constraints Used in Cover:359
GRASP Method!
Number cuts repeat: 0
value: 73.848055
Number Constraints Used in Cover:360
GRASP Method!
Number cuts repeat: 0
value: 73.848055
Number Constraints Used in Cover:361
GRASP Method!
Number cuts repeat: 0
value: 73.848055
Number Constraints Used in Cover:364
GRASP Method!
Number cuts repeat: 0
value: 73.848055
Number Constraints Used in Cover:368
GRASP Method!
Number cuts repeat: 0
value: 73.848055
Number Constraints Used in Cover:371
GRASP Method!
Number cuts repeat: 0
value: 73.848055
Number Constraints Used in Cover:373
GRASP Method!
Number cuts repeat: 0
value: 73.848055
Number Constraints Used in Cover:377
GRASP Method!
Number cuts repeat: 0
value: 73.848055
Number Constraints Used in Cover:382
GRASP Method!
Number cuts repeat: 0
value: 73.848055
Number Constraints Used in Cover:384
GRASP Method!
Number cuts repeat: 0
value: 73.848055
Number Constraints Used in Cover:384
GRASP Method!
Number cuts repeat: 0
value: 73.848055
Number Constraints Used in Cover:386
GRASP Method!
Number cuts repeat: 0
value: 73.848055
Number Constraints Used in Cover:389
GRASP Method!
Number cuts repeat: 0
value: 73.848055
Number Constraints Used in Cover:394
GRASP Method!
Number cuts repeat: 0
value: 73.848055
Number Constraints Used in Cover:397
GRASP Method!
Number cuts repeat: 0
value: 73.848055
Number Constraints Used in Cover:401
GRASP Method!
Number cuts repeat: 0
value: 73.848055
Number Constraints Used in Cover:401
GRASP Method!
Number cuts repeat: 0
value: 73.848055
Number Constraints Used in Cover:403
GRASP Method!
Number cuts repeat: 0
value: 73.848055
Number Constraints Used in Cover:408
GRASP Method!
Number cuts repeat: 0
value: 73.848055
Number Constraints Used in Cover:412
GRASP Method!
Number cuts repeat: 0
value: 73.848055
Number Constraints Used in Cover:420
GRASP Method!
Number cuts repeat: 0
value: 73.848055
Number Constraints Used in Cover:426
GRASP Method!
Number cuts repeat: 0
value: 73.848055
Number Constraints Used in Cover:427
GRASP Method!
Number cuts repeat: 0
value: 73.848055
Number Constraints Used in Cover:431
GRASP Method!
Number cuts repeat: 0
value: 73.848055
Number Constraints Used in Cover:432
GRASP Method!
Number cuts repeat: 0
value: 73.848055
Number Constraints Used in Cover:438
GRASP Method!
Number cuts repeat: 0
value: 73.848055
Number Constraints Used in Cover:440
GRASP Method!
Number cuts repeat: 0
value: 73.848055
Number Constraints Used in Cover:441
GRASP Method!
Number cuts repeat: 0
value: 73.848055
Number Constraints Used in Cover:443
GRASP Method!
Number cuts repeat: 0
value: 73.848055
Number Constraints Used in Cover:448
GRASP Method!
Number cuts repeat: 0
value: 73.848055
Number Constraints Used in Cover:452
GRASP Method!
Number cuts repeat: 0
value: 73.848055
Number Constraints Used in Cover:454
GRASP Method!
Number cuts repeat: 0
value: 73.848055
Number Constraints Used in Cover:454
GRASP Method!
Number cuts repeat: 0
value: 73.848055
Number Constraints Used in Cover:455
GRASP Method!
Number cuts repeat: 0
value: 73.848055
Number Constraints Used in Cover:455
GRASP Method!
Number cuts repeat: 0
value: 73.848055
Number Constraints Used in Cover:456
GRASP Method!
Number cuts repeat: 0
value: 73.848055
Number Constraints Used in Cover:456
GRASP Method!
Number cuts repeat: 0
value: 73.848055
Number Constraints Used in Cover:456
GRASP Method!
Number cuts repeat: 0
value: 73.848055
Number Constraints Used in Cover:457
GRASP Method!
Number cuts repeat: 0
value: 73.848055
Number Constraints Used in Cover:459
GRASP Method!
Number cuts repeat: 0
value: 73.848055
Number Constraints Used in Cover:461
GRASP Method!
Number cuts repeat: 0
value: 73.848055
Number Constraints Used in Cover:462
GRASP Method!
Number cuts repeat: 0
value: 73.848055
Number Constraints Used in Cover:463
GRASP Method!
Number cuts repeat: 0
value: 73.848055
Number Constraints Used in Cover:465
GRASP Method!
Number cuts repeat: 0
value: 73.848055
Number Constraints Used in Cover:467
GRASP Method!
Number cuts repeat: 0
value: 73.848055
Number Constraints Used in Cover:470
GRASP Method!
Number cuts repeat: 0
value: 73.848055
Number Constraints Used in Cover:472
GRASP Method!
Number cuts repeat: 0
value: 73.848055
Number Constraints Used in Cover:477
GRASP Method!
Number cuts repeat: 0
value: 73.848055
Number Constraints Used in Cover:484
GRASP Method!
Number cuts repeat: 0
value: 73.848055
Number Constraints Used in Cover:497
GRASP Method!
Number cuts repeat: 0
value: 73.848055
Number Constraints Used in Cover:507
GRASP Method!
Number cuts repeat: 0
value: 73.848055
Number Constraints Used in Cover:525
GRASP Method!
Number cuts repeat: 0
value: 73.848055
Number Constraints Used in Cover:545
GRASP Method!
Number cuts repeat: 0
value: 73.848055
Number Constraints Used in Cover:563
GRASP Method!
Number cuts repeat: 0
value: 73.848055
Number Constraints Used in Cover:580
GRASP Method!
Number cuts repeat: 0
value: 73.848055
Number Constraints Used in Cover:597
GRASP Method!
Number cuts repeat: 0
value: 73.848055
Number Constraints Used in Cover:608
GRASP Method!
Number cuts repeat: 0
value: 73.848055
Number Constraints Used in Cover:617
GRASP Method!
Number cuts repeat: 0
value: 73.848055
Number Constraints Used in Cover:629
GRASP Method!
Number cuts repeat: 0
value: 73.848055
Number Constraints Used in Cover:634
GRASP Method!
Number cuts repeat: 0
value: 73.848055
Number Constraints Used in Cover:645
GRASP Method!
Number cuts repeat: 0
value: 73.848055
Number Constraints Used in Cover:658
GRASP Method!
Number cuts repeat: 0
value: 73.848055
Number Constraints Used in Cover:666
GRASP Method!
Number cuts repeat: 0
value: 73.848055
Number Constraints Used in Cover:669
GRASP Method!
Number cuts repeat: 0
value: 73.848055
Number Constraints Used in Cover:677
GRASP Method!
Number cuts repeat: 0
value: 73.848055
Number Constraints Used in Cover:683
GRASP Method!
Number cuts repeat: 0
value: 73.848055
Number Constraints Used in Cover:685
GRASP Method!
Number cuts repeat: 0
value: 73.848055
Number Constraints Used in Cover:695
GRASP Method!
Number cuts repeat: 0
value: 73.848055
Number Constraints Used in Cover:712
GRASP Method!
Number cuts repeat: 0
value: 73.848055
Number Constraints Used in Cover:717
GRASP Method!
Number cuts repeat: 0
value: 73.848055
Number Constraints Used in Cover:727
GRASP Method!
Number cuts repeat: 0
value: 73.848055
Number Constraints Used in Cover:730
GRASP Method!
Number cuts repeat: 0
value: 73.848055
Number Constraints Used in Cover:736
GRASP Method!
Number cuts repeat: 0
value: 73.848055
Number Constraints Used in Cover:740
GRASP Method!
Number cuts repeat: 0
value: 73.848055
Number Constraints Used in Cover:744
GRASP Method!
Number cuts repeat: 0
value: 73.848055
Number Constraints Used in Cover:753
GRASP Method!
Number cuts repeat: 0
value: 73.848055
Number Constraints Used in Cover:758
GRASP Method!
Number cuts repeat: 0
value: 73.848055
Number Constraints Used in Cover:759
GRASP Method!
Number cuts repeat: 0
value: 73.848055
Number Constraints Used in Cover:770
GRASP Method!
Number cuts repeat: 0
value: 73.848055
Number Constraints Used in Cover:772
GRASP Method!
Number cuts repeat: 0
value: 73.848055
Number Constraints Used in Cover:775
GRASP Method!
Number cuts repeat: 0
value: 73.848055
Number Constraints Used in Cover:781
GRASP Method!
Number cuts repeat: 0
value: 73.848055
Number Constraints Used in Cover:785
GRASP Method!
Number cuts repeat: 0
value: 73.848055
Number Constraints Used in Cover:787
GRASP Method!
Number cuts repeat: 0
value: 73.848055
Number Constraints Used in Cover:788
GRASP Method!
Number cuts repeat: 0
value: 73.848055
Number Constraints Used in Cover:789
GRASP Method!
Number cuts repeat: 0
value: 73.848055
Number Cuts Final: 779
